
Gurobi 7.5.1 (linux64, Python) logging started Wed Apr 11 20:32:23 2018


Gurobi 7.5.1 (linux64, Python) logging started Wed Apr 11 20:33:07 2018


Gurobi 7.5.1 (linux64, Python) logging started Wed Apr 11 20:34:46 2018


Gurobi 7.5.1 (linux64, Python) logging started Wed Apr 11 20:42:49 2018


Gurobi 7.5.1 (linux64, Python) logging started Wed Apr 11 20:43:33 2018


Gurobi 7.5.1 (linux64, Python) logging started Wed Apr 11 20:43:40 2018


Gurobi 7.5.1 (linux64, Python) logging started Wed Apr 11 20:48:16 2018


Gurobi 7.5.1 (linux64, Python) logging started Thu Apr 12 13:16:25 2018


Gurobi 7.5.1 (linux64, Python) logging started Thu Apr 12 15:01:57 2018


Gurobi 7.5.1 (linux64, Python) logging started Thu Apr 12 15:02:41 2018


Gurobi 7.5.1 (linux64, Python) logging started Thu Apr 12 15:03:42 2018


Gurobi 7.5.1 (linux64, Python) logging started Thu Apr 12 15:05:01 2018


Gurobi 7.5.1 (linux64, Python) logging started Thu Apr 12 15:05:11 2018


Gurobi 7.5.1 (linux64, Python) logging started Thu Apr 12 15:06:09 2018


Gurobi 7.5.1 (linux64, Python) logging started Thu Apr 12 15:06:52 2018

